#SOLVERNAME# PAJ_Gurobi_MOSEK_msd
#SOLVER# Pajarito.PajaritoSolver(3, 600.0, 1.0e-5, true, Gurobi.GurobiSolver(nothing, Any[(:OutputFlag, 1), (:Threads, 8), (:IntFeasTol, 1.0e-9), (:FeasibilityTol, 1.0e-8), (:MIPGap, 1.0e-5)]), Pajarito.UnsetSolver(), 0, false, true, Mosek.MosekSolver(Any[(:LOG, 0), (:NUM_THREADS, 8), (:MSK_DPAR_INTPNT_CO_TOL_REL_GAP, 1.0e-10), (:MSK_DPAR_INTPNT_CO_TOL_PFEAS, 1.0e-10), (:MSK_DPAR_INTPNT_CO_TOL_DFEAS, 1.0e-10), (:MSK_DPAR_INTPNT_CO_TOL_NEAR_REL, 1000.0)]), true, true, false, false, true, false, false, true, false, true, true, true, true, false, true, 10.0, true, false, false, true, 1.0e-12, 1.0e-8, false, "")
#INSTANCE# expdesign_A_12_6.cbf.gz
#TIMELIMIT# 600.0

Problem dimensions:
       variables |      55
     constraints |     356
   nonzeros in A |     823

Cones summary:
Cone             | Count   | Min dim.  | Max dim. 
   Pos. semidef. |       6 |       7^2 |       7^2

Variable types:
      continuous |      43
         integer |      12

Transforming data...               0.00s

Creating conic subproblem...       0.00s

Building MIP model...              0.01s

Solving conic relaxation...        0.02s
 - Relaxation status    =        Optimal
 - Relaxation bound     =       7.176563
Academic license - for non-commercial use only
Optimize a model with 493 rows, 55 columns and 1659 nonzeros
Variable types: 43 continuous, 12 integer (0 binary)
Coefficient statistics:
  Matrix range     [4e-13, 5e+00]
  Objective range  [1e+00, 1e+00]
  Bounds range     [0e+00, 0e+00]
  RHS range        [3e-11, 2e+01]
Presolve removed 429 rows and 16 columns
Presolve time: 0.00s
Presolved: 64 rows, 39 columns, 519 nonzeros
Variable types: 27 continuous, 12 integer (0 binary)
Found heuristic solution: objective 14.8476633

Root relaxation: objective 7.176563e+00, 45 iterations, 0.00 seconds

    Nodes    |    Current Node    |     Objective Bounds      |     Work
 Expl Unexpl |  Obj  Depth IntInf | Incumbent    BestBd   Gap | It/Node Time

     0     0    7.17656    0    2   14.84766    7.17656  51.7%     -    0s
     0     0    7.17656    0    4   14.84766    7.17656  51.7%     -    0s
H    0     0                       9.3981320    7.17656  23.6%     -    0s
H    0     2                       9.3981320    7.17656  23.6%     -    0s
     0     2    7.17656    0    5    9.39813    7.17656  23.6%     -    0s
H   32    36                       8.3328076    7.17656  13.9%   2.6    0s
H   66    59                       7.5787201    7.17656  5.31%   3.5    0s
H  204    67                       7.3416783    7.17656  2.25%   3.6    1s
H  345    24                       7.2838033    7.17656  1.47%   4.0    1s
H  448     9                       7.2824544    7.17947  1.41%   3.8    1s

Cutting planes:
  Lazy constraints: 192

Explored 481 nodes (1832 simplex iterations) in 1.17 seconds
Thread count was 8 (of 16 available processors)

Solution count 8: 7.28245 7.2838 7.34168 ... 14.8477

Optimal solution found (tolerance 1.00e-05)
Best objective 7.282454428413e+00, best bound 7.282454428413e+00, gap 0.0000%

Starting MIP-solver-driven algorithm
Mosek problem is Mosek.MSK_PRO_STA_UNKNOWN, solution is Mosek.MSK_SOL_STA_UNKNOWN, response is Mosek.MSK_RES_OK

Mosek problem is Mosek.MSK_PRO_STA_UNKNOWN, solution is Mosek.MSK_SOL_STA_UNKNOWN, response is Mosek.MSK_RES_OK

WARNING: Conic solver failure: returned status Unknown
WARNING: Conic solver failure: returned status Unknown

MIP-solver-driven algorithm summary:
 - Status               =        Optimal
 - Best feasible        =  +7.282454e+00
 - Best bound           =  +7.282454e+00
 - Relative opt. gap    =      0.000e+00
 - Total time (s)       =       1.22e+00

Timers (s):
 - Setup                =   1.54e-02
 -- Transform data      =   1.83e-04
 -- Create conic data   =   1.45e-03
 -- Create MIP data     =   1.37e-02
 - Algorithm            =   1.20e+00
 -- Solve relaxation    =   1.96e-02
 -- Get relaxation cuts =   7.36e-04
 -- MIP solver driving  =   1.18e+00
 -- Solve subproblems   =   4.47e-01
 -- Get subproblem cuts =   2.76e-02
 -- Get separation cuts =   6.65e-03

Counters:
 - Lazy callbacks       =    41
 -- Integer repeats     =     9
 -- Conic subproblems   =    33
 --- Infeasible         =     2
 --- Optimal            =    29
 --- Suboptimal         =     0
 --- UserLimit          =     0
 --- ConicFailure       =     0
 --- Other status       =     2
 -- Feasible solutions  =    37
 --- From subproblems   =    29
 --- In lazy callback   =     8
 - Heuristic callbacks  =   317
 -- Solutions passed    =     6

Solution returned by conic solver

Rounds of full separation/subproblem cuts, and count of cuts added:
Cone             | Subp.  | Sep.   | Total  | Relax. | Viol. 
   Pos. semidef. |    234 |     18 |    204 |     11 |    204

Distance to feasibility (negative indicates strict feasibility):
Cone             | Variable  | Constraint
          Linear |        NA |  3.05e-16
   Pos. semidef. |        NA |  2.88e-10

Distance to integrality of integer/binary variables:
         integer |  0.00e+00

#STATUS# Optimal
#OBJVAL# 7.282454428413368
#OBJBOUND# 7.282454428413368
#NODECOUNT# 481
#TIMESOLVER# 1.2164268493652344
#TIMEALL# 1.217315912246704
#SOLUTION# [0.7607448191629009,1.0375011347563379,1.6471240412350747,1.5727014168251388,1.2189673658767155,1.0454156505572,7.282454428413368,2.0451178012379976,0.6334735487753336,-0.24377923487847625,-0.2542026620150333,-0.15583142637912908,0.8692956304253279,0.6334735487753336,1.6210703524089636,-0.6072026083541033,-0.3506389295773722,0.6099342690312006,0.5994233141852496,-0.24377923487847628,-0.6072026083541033,1.0787033728386706,0.3789022408128291,-0.6425287109691153,-0.22672373867165,-0.2542026620150333,-0.3506389295773723,0.3789022408128291,0.8129262968414096,-0.12978782521919358,-0.06467572800126614,-0.1558314263791291,0.6099342690312006,-0.6425287109691153,-0.12978782521919358,1.3542016025839665,0.12921786398555987,0.8692956304253279,0.5994233141852496,-0.22672373867165005,-0.0646757280012662,0.12921786398555987,1.4206662574974454,4.0,1.0,2.0,1.0,2.0,4.0,-0.0,-0.0,2.0,2.0,-0.0,-0.0]
